(set-logic QF_S)
(declare-fun var0 () String)
(assert (RegexIn var0 (RegexConcat (RegexPlus (RegexStar (Str2Reg "00"))) (RegexUnion (RegexPlus (Str2Reg "111")) (RegexPlus (Str2Reg "22"))))))
(assert (<= 15 (Length var0)))
(check-sat)